c preprocessed version of gil262.tsp, 258 vertices, 761 edges
p td 258 761
0 1
0 127
0 126
0 137
0 136
0 128
2 1
52 1
137 1
53 1
3 1
138 1
127 1
2 3
2 221
2 203
2 91
2 127
4 3
53 3
48 3
3 221
3 49
3 51
5 4
207 4
4 206
4 205
4 48
4 203
4 221
5 6
5 207
5 47
5 48
7 6
9 6
207 6
8 6
6 208
6 206
6 47
7 8
7 209
7 208
9 8
209 8
8 10
9 10
9 43
9 42
9 41
9 47
11 10
43 10
209 10
45 10
38 10
10 39
12 11
11 37
11 36
11 35
11 38
11 209
210 11
211 11
12 13
12 35
12 219
12 212
211 12
14 13
13 34
13 254
13 35
13 219
15 14
14 16
14 254
14 219
14 213
15 16
15 218
15 217
15 216
15 215
15 213
16 17
16 218
16 34
16 254
18 17
29 17
31 17
218 17
34 17
18 19
18 32
18 217
18 218
18 31
20 19
81 19
222 19
217 19
79 19
80 19
19 21
19 32
19 223
20 21
20 22
20 25
20 24
20 39
20 40
20 50
22 21
32 21
21 27
21 33
23 22
22 27
22 25
24 23
26 23
23 25
23 27
24 25
24 26
24 38
24 39
26 27
26 28
26 37
26 38
28 27
27 33
29 28
28 33
28 37
30 29
29 31
29 33
29 34
29 37
29 36
30 31
30 32
30 33
31 32
32 33
35 34
254 34
34 36
35 36
37 36
38 37
38 39
40 39
45 39
44 39
46 39
40 41
40 46
40 49
40 50
42 41
41 47
41 46
41 49
42 43
42 46
43 44
43 45
43 46
45 44
44 46
48 47
49 47
48 49
50 49
51 49
50 51
50 54
50 55
52 51
53 51
51 54
52 53
52 54
52 138
52 139
55 54
139 54
140 54
56 55
55 140
55 141
55 145
57 56
130 56
56 247
56 246
56 150
56 240
56 145
57 58
57 149
57 150
57 247
59 58
243 58
244 58
149 58
247 58
154 58
151 58
152 58
59 60
59 243
115 59
59 154
59 163
61 60
242 60
248 60
243 60
60 163
60 164
61 62
61 164
61 248
61 249
61 240
61 239
62 63
62 253
62 164
62 238
62 249
64 63
63 162
63 253
63 164
64 65
64 162
64 253
66 65
65 232
237 65
65 236
65 162
65 253
66 67
66 234
66 235
66 233
66 232
66 161
66 162
68 67
67 160
67 235
67 161
68 69
159 68
112 68
68 166
68 234
68 235
68 160
68 165
70 69
107 69
110 69
109 69
69 166
69 233
69 234
70 71
228 70
107 70
70 106
70 176
70 233
70 232
72 71
229 71
228 71
73 72
229 72
72 230
73 74
73 230
73 231
73 227
75 74
175 74
227 74
252 74
226 74
74 223
76 75
171 75
175 75
75 226
76 77
171 76
76 181
76 183
76 226
76 184
76 170
78 77
77 224
77 181
77 226
78 79
78 224
78 199
78 197
78 196
78 181
78 180
79 80
222 79
224 79
79 225
79 199
81 80
80 198
80 199
82 81
81 217
81 198
81 195
81 185
82 83
82 217
82 195
82 216
84 83
83 195
83 216
83 215
84 85
84 195
84 186
84 215
86 85
85 213
187 85
186 85
85 215
85 193
85 194
86 87
86 213
86 214
86 194
88 87
102 87
100 87
101 87
214 87
87 194
88 89
88 99
88 214
88 100
88 212
90 89
98 89
202 89
212 89
89 99
211 89
220 89
90 91
204 90
90 202
90 206
90 203
90 97
220 90
92 91
95 91
96 91
126 91
97 91
127 91
203 91
92 93
92 95
92 126
92 94
92 125
93 94
93 123
93 125
124 93
95 94
96 94
94 122
123 94
121 94
96 95
96 97
96 121
155 96
157 96
98 97
202 97
157 97
98 99
98 202
156 98
157 98
100 99
111 99
101 99
156 99
100 101
102 101
111 101
102 103
102 193
102 194
102 192
102 167
102 111
104 103
177 103
103 191
167 103
103 192
104 105
177 104
167 104
104 200
104 108
105 106
105 168
105 201
105 200
105 108
107 106
168 106
108 106
106 176
107 108
107 109
109 108
167 108
110 109
167 109
110 111
110 167
110 112
110 166
112 111
167 111
156 111
112 113
112 166
112 165
156 112
155 112
114 113
113 119
113 165
155 113
115 114
114 116
114 165
114 119
114 158
115 116
115 153
115 158
115 163
115 154
117 116
118 116
116 119
116 153
117 118
117 122
117 153
117 123
152 117
118 119
118 122
118 120
119 120
155 119
121 120
120 122
155 120
121 122
155 121
123 122
124 123
152 123
124 125
124 146
151 124
124 152
126 125
125 128
129 125
125 146
126 127
126 128
129 128
135 128
136 128
130 129
129 135
129 146
131 130
130 133
130 134
130 135
130 144
130 145
130 146
130 147
130 150
131 132
131 133
131 144
133 132
137 132
134 132
144 132
136 132
140 132
133 134
135 134
134 136
135 136
137 136
137 138
137 139
137 140
139 138
139 140
141 140
144 140
140 143
142 141
141 143
141 145
142 143
142 144
142 145
144 143
144 145
147 146
146 148
151 146
147 148
147 149
147 150
149 148
151 148
149 150
151 149
151 152
152 153
152 154
153 154
156 155
155 157
156 157
159 158
160 158
165 158
161 158
163 158
159 160
159 165
161 160
161 162
161 163
163 162
162 164
163 164
169 168
173 168
174 168
168 176
168 201
169 170
169 173
169 200
169 201
171 170
177 170
170 178
170 184
173 170
200 170
170 172
171 172
171 175
171 174
173 172
172 174
173 174
175 174
174 176
177 178
177 191
177 200
179 178
189 178
184 178
178 190
178 191
179 180
179 181
179 190
179 182
179 184
181 180
180 185
180 196
180 186
180 187
180 190
180 188
181 182
181 183
182 183
182 184
184 183
186 185
195 185
196 185
198 185
187 186
186 195
187 188
187 193
187 192
187 191
189 188
188 190
188 191
189 190
189 191
191 192
193 192
193 194
197 196
196 198
197 198
197 199
199 198
200 201
204 203
205 203
203 221
204 205
204 206
205 206
207 206
206 208
220 206
209 208
210 208
220 208
210 209
210 211
210 220
211 212
211 220
213 212
214 212
212 219
214 213
213 215
213 219
216 215
217 216
217 218
222 223
222 225
224 223
226 223
225 223
224 225
224 226
228 227
237 227
231 227
251 227
227 252
229 228
228 232
228 236
228 231
228 237
229 230
229 231
231 230
232 233
236 232
233 234
235 234
237 236
237 238
237 251
237 253
237 250
239 238
249 238
250 238
253 238
240 239
249 239
239 250
239 252
240 241
248 240
240 245
240 246
242 241
243 241
248 241
245 241
242 243
242 248
243 244
243 245
244 245
244 247
244 246
245 246
246 247
251 250
250 252
251 252
255 257
255 74
255 174
255 175
255 176
255 256
256 257
256 71
256 72
256 73
256 74
257 70
257 71
257 176
